
Gurobi 10.0.0 (win64) logging started Thu Jun 13 21:51:07 2024

Set parameter LogFile to value "C:\Users\ealvarezq\Documents\GitHub\Comillas\Models\JointResearch\05. Models\06.Benchmarking\L.Cont_Investments_per_hour\RTS24_mod2_ByStages_nc30/openStarNet_RTS24_mod2_ByStages_nc30.log"
Set parameter Method to value 2
Set parameter MIPFocus to value 1
Set parameter Presolve to value 2
Set parameter RINS to value 100
Set parameter MIPGap to value 0.01
Set parameter Threads to value 9
Set parameter TimeLimit to value 259200
Set parameter IterationLimit to value 760000000
Gurobi Optimizer version 10.0.0 build v10.0.0rc2 (win64)

CPU model: Intel(R) Core(TM) i7-8700 CPU @ 3.20GHz, instruction set [SSE2|AVX|AVX2]
Thread count: 6 physical cores, 12 logical processors, using up to 9 threads

Optimize a model with 10653 rows, 7201 columns and 29013 nonzeros
Model fingerprint: 0xb9f04705
Variable types: 7180 continuous, 21 integer (21 binary)
Coefficient statistics:
  Matrix range     [4e-03, 3e+03]
  Objective range  [1e+00, 1e+00]
  Bounds range     [5e-05, 2e+00]
  RHS range        [5e-05, 2e+00]
Presolve removed 6341 rows and 3646 columns
Presolve time: 0.04s
Presolved: 4312 rows, 3555 columns, 15553 nonzeros
Variable types: 3534 continuous, 21 integer (21 binary)
Found heuristic solution: objective 96.5195392
Root relaxation presolve removed 6 rows and 6 columns
Root relaxation presolved: 4306 rows, 3549 columns, 15541 nonzeros

Root barrier log...

Ordering time: 0.00s

Barrier statistics:
 Dense cols : 21
 AA' NZ     : 2.889e+04
 Factor NZ  : 8.292e+04 (roughly 4 MB of memory)
 Factor Ops : 1.700e+06 (less than 1 second per iteration)
 Threads    : 9

                  Objective                Residual
Iter       Primal          Dual         Primal    Dual     Compl     Time
   0   2.73317039e+06 -1.74654599e+08  2.24e+01 1.11e+03  1.48e+05     0s
   1   8.84367225e+05 -9.66852694e+07  7.21e+00 8.91e+01  4.40e+04     0s
   2   6.10054041e+04 -5.98143715e+07  5.14e-01 1.88e+01  7.95e+03     0s
   3   1.67157638e+04 -8.30883369e+06  8.49e-02 1.71e-09  9.44e+02     0s
   4   9.93361153e+03 -6.26281570e+05  5.38e-03 3.45e-11  6.45e+01     0s
   5   6.48430432e+03 -1.07102657e+05  3.06e-13 4.73e-11  1.13e+01     0s
   6   2.30306199e+03 -2.69598493e+04  3.44e-13 1.00e-11  2.91e+00     0s
   7   7.25253641e+02 -6.20107599e+03  2.60e-13 5.91e-12  6.89e-01     0s
   8   3.36810591e+02 -9.54958361e+02  1.07e-13 4.21e-12  1.29e-01     0s
   9   1.39699024e+02 -1.76656629e+02  1.30e-13 5.99e-12  3.15e-02     0s
  10   8.74442920e+01 -1.15361119e+01  1.63e-13 5.29e-12  9.85e-03     0s
  11   6.89047354e+01  2.70828150e+01  1.11e-13 4.75e-12  4.16e-03     0s
  12   5.87853915e+01  3.89970395e+01  1.74e-13 2.11e-12  1.97e-03     0s
  13   5.43797903e+01  4.35796269e+01  3.93e-13 1.64e-12  1.07e-03     0s
  14   5.15477118e+01  4.66449255e+01  3.79e-12 2.57e-12  4.88e-04     0s
  15   5.04597656e+01  4.81069541e+01  2.06e-12 2.94e-12  2.34e-04     0s
  16   4.96538346e+01  4.88705890e+01  2.28e-11 2.65e-12  7.79e-05     0s
  17   4.93874275e+01  4.90865020e+01  1.64e-11 3.16e-12  2.99e-05     0s
  18   4.93303748e+01  4.92759203e+01  1.73e-11 3.46e-12  5.42e-06     0s
  19   4.93163718e+01  4.93005232e+01  1.40e-11 2.36e-12  1.58e-06     0s
  20   4.93144428e+01  4.93090416e+01  1.73e-11 2.23e-12  5.37e-07     0s
  21   4.93140516e+01  4.93121034e+01  1.06e-11 4.22e-12  1.94e-07     0s
  22   4.93138734e+01  4.93137303e+01  2.33e-11 5.68e-12  1.42e-08     0s
  23   4.93138666e+01  4.93138568e+01  1.35e-09 3.90e-12  9.81e-10     0s
  24   4.93138641e+01  4.93138638e+01  1.10e-10 7.86e-12  2.05e-11     0s

Barrier solved model in 24 iterations and 0.16 seconds (0.15 work units)
Optimal objective 4.93138641e+01


Root relaxation: objective 4.931386e+01, 473 iterations, 0.10 seconds (0.07 work units)

    Nodes    |    Current Node    |     Objective Bounds      |     Work
 Expl Unexpl |  Obj  Depth IntInf | Incumbent    BestBd   Gap | It/Node Time

     0     0   49.31386    0   16   96.51954   49.31386  48.9%     -    0s
H    0     0                      86.5421609   49.96320  42.3%     -    0s
     0     0   49.96320    0   11   86.54216   49.96320  42.3%     -    0s
     0     0   49.97258    0   11   86.54216   49.97258  42.3%     -    0s
H    0     0                      82.9990170   50.14319  39.6%     -    0s
     0     0   50.14319    0   11   82.99902   50.14319  39.6%     -    0s
     0     0   50.14356    0   12   82.99902   50.14356  39.6%     -    0s
     0     0   50.47856    0   14   82.99902   50.47856  39.2%     -    0s
H    0     0                      75.4586907   50.62476  32.9%     -    0s
     0     0   50.62476    0   11   75.45869   50.62476  32.9%     -    0s
     0     0   50.62476    0   11   75.45869   50.62476  32.9%     -    0s
     0     0   50.62476    0    9   75.45869   50.62476  32.9%     -    0s
     0     0   50.83279    0    9   75.45869   50.83279  32.6%     -    0s
H    0     0                      74.5321376   51.27123  31.2%     -    1s
     0     0   51.27123    0    9   74.53214   51.27123  31.2%     -    1s
H    0     0                      67.1011479   51.27123  23.6%     -    1s
     0     2   51.27123    0    9   67.10115   51.27123  23.6%     -    1s
H   97    86                      66.1985619   53.10540  19.8%   173    3s
   491   146   65.66284   10   10   66.19856   57.86645  12.6%   153    5s

Cutting planes:
  Gomory: 1
  Implied bound: 8
  MIR: 144
  Relax-and-lift: 18

Explored 1835 nodes (188279 simplex iterations) in 8.81 seconds (11.36 work units)
Thread count was 9 (of 12 available processors)

Solution count 7: 66.1986 67.1011 74.5321 ... 96.5195

Optimal solution found (tolerance 1.00e-02)
Best objective 6.619856193865e+01, best bound 6.619856193865e+01, gap 0.0000%

Gurobi 10.0.0 (win64) logging started Thu Jun 13 21:51:17 2024

Set parameter LogFile to value "C:\Users\ealvarezq\Documents\GitHub\Comillas\Models\JointResearch\05. Models\06.Benchmarking\L.Cont_Investments_per_hour\RTS24_mod2_ByStages_nc30/openStarNet_RTS24_mod2_ByStages_nc30.log"
Set parameter Method to value 2
Set parameter MIPFocus to value 1
Set parameter Presolve to value 2
Set parameter RINS to value 100
Set parameter MIPGap to value 0.01
Set parameter Threads to value 9
Set parameter TimeLimit to value 259200
Set parameter IterationLimit to value 760000000
Gurobi Optimizer version 10.0.0 build v10.0.0rc2 (win64)

CPU model: Intel(R) Core(TM) i7-8700 CPU @ 3.20GHz, instruction set [SSE2|AVX|AVX2]
Thread count: 6 physical cores, 12 logical processors, using up to 9 threads

Optimize a model with 10653 rows, 7180 columns and 26472 nonzeros
Model fingerprint: 0xa06ddcc8
Coefficient statistics:
  Matrix range     [4e-03, 3e+03]
  Objective range  [1e+00, 1e+00]
  Bounds range     [5e-05, 2e+00]
  RHS range        [5e-05, 2e+01]
Presolve removed 8973 rows and 4164 columns
Presolve time: 0.01s
Presolved: 1680 rows, 3070 columns, 7573 nonzeros

Ordering time: 0.00s

Barrier statistics:
 AA' NZ     : 4.403e+03
 Factor NZ  : 1.651e+04 (roughly 2 MB of memory)
 Factor Ops : 2.412e+05 (less than 1 second per iteration)
 Threads    : 1

                  Objective                Residual
Iter       Primal          Dual         Primal    Dual     Compl     Time
   0   2.12320100e+06 -5.49623694e+07  1.39e+01 8.37e+03  1.03e+05     0s
   1   1.35580933e+05 -3.57292302e+07  8.65e-01 6.55e-11  1.15e+04     0s
   2   4.92685384e+04 -1.10680182e+07  2.87e-01 1.16e-10  2.86e+03     0s
   3   1.83938226e+04 -1.77761146e+06  9.04e-03 6.91e-11  3.43e+02     0s
   4   1.28212221e+04 -9.54155073e+04  8.29e-12 6.18e-11  2.01e+01     0s
   5   3.76419762e+03 -3.10398952e+04  7.65e-12 2.18e-11  6.47e+00     0s
   6   1.44333131e+03 -8.81101187e+03  4.46e-12 9.38e-12  1.91e+00     0s
   7   4.35241433e+02 -2.37788788e+03  3.76e-12 7.83e-12  5.23e-01     0s
   8   2.10984848e+02 -7.15452619e+02  1.89e-12 6.74e-12  1.72e-01     0s
   9   1.27968133e+02 -1.69902824e+02  2.28e-12 4.32e-12  5.54e-02     0s
  10   1.01998314e+02 -3.37628481e+01  1.38e-12 7.54e-12  2.52e-02     0s
  11   8.44871352e+01  2.73029065e+01  8.56e-13 4.90e-12  1.06e-02     0s
  12   7.55146922e+01  5.23223336e+01  1.53e-12 6.16e-12  4.31e-03     0s
  13   6.92116359e+01  6.17119372e+01  1.56e-11 2.24e-11  1.39e-03     0s
  14   6.68987504e+01  6.56546079e+01  3.98e-11 8.51e-12  2.31e-04     0s
  15   6.63040934e+01  6.61010845e+01  8.93e-11 3.61e-11  3.77e-05     0s
  16   6.62261595e+01  6.61763970e+01  9.03e-11 1.04e-11  9.25e-06     0s
  17   6.61995155e+01  6.61952283e+01  1.16e-10 2.36e-11  7.97e-07     0s
  18   6.61985724e+01  6.61985358e+01  3.68e-11 7.66e-12  6.81e-09     0s
  19   6.61985619e+01  6.61985619e+01  5.95e-11 1.64e-11  1.15e-14     0s

Barrier solved model in 19 iterations and 0.04 seconds (0.03 work units)
Optimal objective 6.61985619e+01

Crossover log...

     334 DPushes remaining with DInf 0.0000000e+00                 0s
       0 DPushes remaining with DInf 0.0000000e+00                 0s

     108 PPushes remaining with PInf 0.0000000e+00                 0s
       0 PPushes remaining with PInf 0.0000000e+00                 0s

  Push phase complete: Pinf 0.0000000e+00, Dinf 5.9933881e-13      0s

Iteration    Objective       Primal Inf.    Dual Inf.      Time
     114    6.6198562e+01   0.000000e+00   0.000000e+00      0s

Use crossover to convert LP symmetric solution to basic solution...
Crossover log...

       0 DPushes remaining with DInf 0.0000000e+00                 0s

      57 PPushes remaining with PInf 0.0000000e+00                 0s
       0 PPushes remaining with PInf 0.0000000e+00                 0s

  Push phase complete: Pinf 0.0000000e+00, Dinf 5.2901507e-13      0s

Iteration    Objective       Primal Inf.    Dual Inf.      Time
     180    6.6198562e+01   0.000000e+00   0.000000e+00      0s

Solved in 180 iterations and 0.07 seconds (0.04 work units)
Optimal objective  6.619856194e+01
